(set-logic QF_LRA)
(declare-fun T1 () Real )
(declare-fun T2 () Real )
(declare-fun T3 () Real )
(declare-fun T4 () Real )
(declare-fun T5 () Real )
(declare-fun T6 () Real )
(declare-fun Z () Real )
(assert ( and 
(or ( <= ( + T1 47 ) T2 ) ( <= ( + T2 32 ) T1 ) )
(or ( <= ( + T1 61 )  ( + T2 32 ) ) ( <= ( + T2 117 )( + T1 47 ) ) )
(or ( <= ( + T1 127 )  ( + T2 117 ) ) ( <= ( + T2 185 )( + T1 61 ) ) )
(or ( <= ( + T1 186 )  ( + T2 185 ) ) ( <= ( + T2 239 )( + T1 127 ) ) )
(or ( <= ( + T1 251 )  ( + T2 239 ) ) ( <= ( + T2 331 )( + T1 186 ) ) )
(or ( <= ( + T1 262 )  ( + T2 331 ) ) ( <= ( + T2 413 )( + T1 251 ) ) )
(or ( <= ( + T1 340 )  ( + T2 413 ) ) ( <= ( + T2 439 )( + T1 262 ) ) )
(or ( <= ( + T1 415 )  ( + T2 439 ) ) ( <= ( + T2 462 )( + T1 340 ) ) )
(or ( <= ( + T1 47 ) T3 ) ( <= ( + T3 79 ) T1 ) )
(or ( <= ( + T1 61 )  ( + T3 79 ) ) ( <= ( + T3 159 )( + T1 47 ) ) )
(or ( <= ( + T1 127 )  ( + T3 159 ) ) ( <= ( + T3 190 )( + T1 61 ) ) )
(or ( <= ( + T1 186 )  ( + T3 190 ) ) ( <= ( + T3 222 )( + T1 127 ) ) )
(or ( <= ( + T1 251 )  ( + T3 222 ) ) ( <= ( + T3 236 )( + T1 186 ) ) )
(or ( <= ( + T1 262 )  ( + T3 236 ) ) ( <= ( + T3 307 )( + T1 251 ) ) )
(or ( <= ( + T1 340 )  ( + T3 307 ) ) ( <= ( + T3 375 )( + T1 262 ) ) )
(or ( <= ( + T1 415 )  ( + T3 375 ) ) ( <= ( + T3 448 )( + T1 340 ) ) )
(or ( <= ( + T1 47 ) T4 ) ( <= ( + T4 74 ) T1 ) )
(or ( <= ( + T1 61 )  ( + T4 74 ) ) ( <= ( + T4 78 )( + T1 47 ) ) )
(or ( <= ( + T1 127 )  ( + T4 78 ) ) ( <= ( + T4 123 )( + T1 61 ) ) )
(or ( <= ( + T1 186 )  ( + T4 123 ) ) ( <= ( + T4 171 )( + T1 127 ) ) )
(or ( <= ( + T1 251 )  ( + T4 171 ) ) ( <= ( + T4 237 )( + T1 186 ) ) )
(or ( <= ( + T1 262 )  ( + T4 237 ) ) ( <= ( + T4 290 )( + T1 251 ) ) )
(or ( <= ( + T1 340 )  ( + T4 290 ) ) ( <= ( + T4 299 )( + T1 262 ) ) )
(or ( <= ( + T1 415 )  ( + T4 299 ) ) ( <= ( + T4 363 )( + T1 340 ) ) )
(or ( <= ( + T1 47 ) T5 ) ( <= ( + T5 66 ) T1 ) )
(or ( <= ( + T1 61 )  ( + T5 66 ) ) ( <= ( + T5 140 )( + T1 47 ) ) )
(or ( <= ( + T1 127 )  ( + T5 140 ) ) ( <= ( + T5 214 )( + T1 61 ) ) )
(or ( <= ( + T1 186 )  ( + T5 214 ) ) ( <= ( + T5 297 )( + T1 127 ) ) )
(or ( <= ( + T1 251 )  ( + T5 297 ) ) ( <= ( + T5 333 )( + T1 186 ) ) )
(or ( <= ( + T1 262 )  ( + T5 333 ) ) ( <= ( + T5 384 )( + T1 251 ) ) )
(or ( <= ( + T1 340 )  ( + T5 384 ) ) ( <= ( + T5 441 )( + T1 262 ) ) )
(or ( <= ( + T1 415 )  ( + T5 441 ) ) ( <= ( + T5 460 )( + T1 340 ) ) )
(or ( <= ( + T1 47 ) T6 ) ( <= ( + T6 87 ) T1 ) )
(or ( <= ( + T1 61 )  ( + T6 87 ) ) ( <= ( + T6 163 )( + T1 47 ) ) )
(or ( <= ( + T1 127 )  ( + T6 163 ) ) ( <= ( + T6 236 )( + T1 61 ) ) )
(or ( <= ( + T1 186 )  ( + T6 236 ) ) ( <= ( + T6 314 )( + T1 127 ) ) )
(or ( <= ( + T1 251 )  ( + T6 314 ) ) ( <= ( + T6 371 )( + T1 186 ) ) )
(or ( <= ( + T1 262 )  ( + T6 371 ) ) ( <= ( + T6 469 )( + T1 251 ) ) )
(or ( <= ( + T1 340 )  ( + T6 469 ) ) ( <= ( + T6 522 )( + T1 262 ) ) )
(or ( <= ( + T1 415 )  ( + T6 522 ) ) ( <= ( + T6 557 )( + T1 340 ) ) )
(or ( <= ( + T2 32 ) T3 ) ( <= ( + T3 79 ) T2 ) )
(or ( <= ( + T2 117 )  ( + T3 79 ) ) ( <= ( + T3 159 )( + T2 32 ) ) )
(or ( <= ( + T2 185 )  ( + T3 159 ) ) ( <= ( + T3 190 )( + T2 117 ) ) )
(or ( <= ( + T2 239 )  ( + T3 190 ) ) ( <= ( + T3 222 )( + T2 185 ) ) )
(or ( <= ( + T2 331 )  ( + T3 222 ) ) ( <= ( + T3 236 )( + T2 239 ) ) )
(or ( <= ( + T2 413 )  ( + T3 236 ) ) ( <= ( + T3 307 )( + T2 331 ) ) )
(or ( <= ( + T2 439 )  ( + T3 307 ) ) ( <= ( + T3 375 )( + T2 413 ) ) )
(or ( <= ( + T2 462 )  ( + T3 375 ) ) ( <= ( + T3 448 )( + T2 439 ) ) )
(or ( <= ( + T2 32 ) T4 ) ( <= ( + T4 74 ) T2 ) )
(or ( <= ( + T2 117 )  ( + T4 74 ) ) ( <= ( + T4 78 )( + T2 32 ) ) )
(or ( <= ( + T2 185 )  ( + T4 78 ) ) ( <= ( + T4 123 )( + T2 117 ) ) )
(or ( <= ( + T2 239 )  ( + T4 123 ) ) ( <= ( + T4 171 )( + T2 185 ) ) )
(or ( <= ( + T2 331 )  ( + T4 171 ) ) ( <= ( + T4 237 )( + T2 239 ) ) )
(or ( <= ( + T2 413 )  ( + T4 237 ) ) ( <= ( + T4 290 )( + T2 331 ) ) )
(or ( <= ( + T2 439 )  ( + T4 290 ) ) ( <= ( + T4 299 )( + T2 413 ) ) )
(or ( <= ( + T2 462 )  ( + T4 299 ) ) ( <= ( + T4 363 )( + T2 439 ) ) )
(or ( <= ( + T2 32 ) T5 ) ( <= ( + T5 66 ) T2 ) )
(or ( <= ( + T2 117 )  ( + T5 66 ) ) ( <= ( + T5 140 )( + T2 32 ) ) )
(or ( <= ( + T2 185 )  ( + T5 140 ) ) ( <= ( + T5 214 )( + T2 117 ) ) )
(or ( <= ( + T2 239 )  ( + T5 214 ) ) ( <= ( + T5 297 )( + T2 185 ) ) )
(or ( <= ( + T2 331 )  ( + T5 297 ) ) ( <= ( + T5 333 )( + T2 239 ) ) )
(or ( <= ( + T2 413 )  ( + T5 333 ) ) ( <= ( + T5 384 )( + T2 331 ) ) )
(or ( <= ( + T2 439 )  ( + T5 384 ) ) ( <= ( + T5 441 )( + T2 413 ) ) )
(or ( <= ( + T2 462 )  ( + T5 441 ) ) ( <= ( + T5 460 )( + T2 439 ) ) )
(or ( <= ( + T2 32 ) T6 ) ( <= ( + T6 87 ) T2 ) )
(or ( <= ( + T2 117 )  ( + T6 87 ) ) ( <= ( + T6 163 )( + T2 32 ) ) )
(or ( <= ( + T2 185 )  ( + T6 163 ) ) ( <= ( + T6 236 )( + T2 117 ) ) )
(or ( <= ( + T2 239 )  ( + T6 236 ) ) ( <= ( + T6 314 )( + T2 185 ) ) )
(or ( <= ( + T2 331 )  ( + T6 314 ) ) ( <= ( + T6 371 )( + T2 239 ) ) )
(or ( <= ( + T2 413 )  ( + T6 371 ) ) ( <= ( + T6 469 )( + T2 331 ) ) )
(or ( <= ( + T2 439 )  ( + T6 469 ) ) ( <= ( + T6 522 )( + T2 413 ) ) )
(or ( <= ( + T2 462 )  ( + T6 522 ) ) ( <= ( + T6 557 )( + T2 439 ) ) )
(or ( <= ( + T3 79 ) T4 ) ( <= ( + T4 74 ) T3 ) )
(or ( <= ( + T3 159 )  ( + T4 74 ) ) ( <= ( + T4 78 )( + T3 79 ) ) )
(or ( <= ( + T3 190 )  ( + T4 78 ) ) ( <= ( + T4 123 )( + T3 159 ) ) )
(or ( <= ( + T3 222 )  ( + T4 123 ) ) ( <= ( + T4 171 )( + T3 190 ) ) )
(or ( <= ( + T3 236 )  ( + T4 171 ) ) ( <= ( + T4 237 )( + T3 222 ) ) )
(or ( <= ( + T3 307 )  ( + T4 237 ) ) ( <= ( + T4 290 )( + T3 236 ) ) )
(or ( <= ( + T3 375 )  ( + T4 290 ) ) ( <= ( + T4 299 )( + T3 307 ) ) )
(or ( <= ( + T3 448 )  ( + T4 299 ) ) ( <= ( + T4 363 )( + T3 375 ) ) )
(or ( <= ( + T3 79 ) T5 ) ( <= ( + T5 66 ) T3 ) )
(or ( <= ( + T3 159 )  ( + T5 66 ) ) ( <= ( + T5 140 )( + T3 79 ) ) )
(or ( <= ( + T3 190 )  ( + T5 140 ) ) ( <= ( + T5 214 )( + T3 159 ) ) )
(or ( <= ( + T3 222 )  ( + T5 214 ) ) ( <= ( + T5 297 )( + T3 190 ) ) )
(or ( <= ( + T3 236 )  ( + T5 297 ) ) ( <= ( + T5 333 )( + T3 222 ) ) )
(or ( <= ( + T3 307 )  ( + T5 333 ) ) ( <= ( + T5 384 )( + T3 236 ) ) )
(or ( <= ( + T3 375 )  ( + T5 384 ) ) ( <= ( + T5 441 )( + T3 307 ) ) )
(or ( <= ( + T3 448 )  ( + T5 441 ) ) ( <= ( + T5 460 )( + T3 375 ) ) )
(or ( <= ( + T3 79 ) T6 ) ( <= ( + T6 87 ) T3 ) )
(or ( <= ( + T3 159 )  ( + T6 87 ) ) ( <= ( + T6 163 )( + T3 79 ) ) )
(or ( <= ( + T3 190 )  ( + T6 163 ) ) ( <= ( + T6 236 )( + T3 159 ) ) )
(or ( <= ( + T3 222 )  ( + T6 236 ) ) ( <= ( + T6 314 )( + T3 190 ) ) )
(or ( <= ( + T3 236 )  ( + T6 314 ) ) ( <= ( + T6 371 )( + T3 222 ) ) )
(or ( <= ( + T3 307 )  ( + T6 371 ) ) ( <= ( + T6 469 )( + T3 236 ) ) )
(or ( <= ( + T3 375 )  ( + T6 469 ) ) ( <= ( + T6 522 )( + T3 307 ) ) )
(or ( <= ( + T3 448 )  ( + T6 522 ) ) ( <= ( + T6 557 )( + T3 375 ) ) )
(or ( <= ( + T4 74 ) T5 ) ( <= ( + T5 66 ) T4 ) )
(or ( <= ( + T4 78 )  ( + T5 66 ) ) ( <= ( + T5 140 )( + T4 74 ) ) )
(or ( <= ( + T4 123 )  ( + T5 140 ) ) ( <= ( + T5 214 )( + T4 78 ) ) )
(or ( <= ( + T4 171 )  ( + T5 214 ) ) ( <= ( + T5 297 )( + T4 123 ) ) )
(or ( <= ( + T4 237 )  ( + T5 297 ) ) ( <= ( + T5 333 )( + T4 171 ) ) )
(or ( <= ( + T4 290 )  ( + T5 333 ) ) ( <= ( + T5 384 )( + T4 237 ) ) )
(or ( <= ( + T4 299 )  ( + T5 384 ) ) ( <= ( + T5 441 )( + T4 290 ) ) )
(or ( <= ( + T4 363 )  ( + T5 441 ) ) ( <= ( + T5 460 )( + T4 299 ) ) )
(or ( <= ( + T4 74 ) T6 ) ( <= ( + T6 87 ) T4 ) )
(or ( <= ( + T4 78 )  ( + T6 87 ) ) ( <= ( + T6 163 )( + T4 74 ) ) )
(or ( <= ( + T4 123 )  ( + T6 163 ) ) ( <= ( + T6 236 )( + T4 78 ) ) )
(or ( <= ( + T4 171 )  ( + T6 236 ) ) ( <= ( + T6 314 )( + T4 123 ) ) )
(or ( <= ( + T4 237 )  ( + T6 314 ) ) ( <= ( + T6 371 )( + T4 171 ) ) )
(or ( <= ( + T4 290 )  ( + T6 371 ) ) ( <= ( + T6 469 )( + T4 237 ) ) )
(or ( <= ( + T4 299 )  ( + T6 469 ) ) ( <= ( + T6 522 )( + T4 290 ) ) )
(or ( <= ( + T4 363 )  ( + T6 522 ) ) ( <= ( + T6 557 )( + T4 299 ) ) )
(or ( <= ( + T5 66 ) T6 ) ( <= ( + T6 87 ) T5 ) )
(or ( <= ( + T5 140 )  ( + T6 87 ) ) ( <= ( + T6 163 )( + T5 66 ) ) )
(or ( <= ( + T5 214 )  ( + T6 163 ) ) ( <= ( + T6 236 )( + T5 140 ) ) )
(or ( <= ( + T5 297 )  ( + T6 236 ) ) ( <= ( + T6 314 )( + T5 214 ) ) )
(or ( <= ( + T5 333 )  ( + T6 314 ) ) ( <= ( + T6 371 )( + T5 297 ) ) )
(or ( <= ( + T5 384 )  ( + T6 371 ) ) ( <= ( + T6 469 )( + T5 333 ) ) )
(or ( <= ( + T5 441 )  ( + T6 469 ) ) ( <= ( + T6 522 )( + T5 384 ) ) )
(or ( <= ( + T5 460 )  ( + T6 522 ) ) ( <= ( + T6 557 )( + T5 441 ) ) )
( <= ( + T1 415 ) Z)
( <= ( + T2 462 ) Z)
( <= ( + T3 448 ) Z)
( <= ( + T4 363 ) Z)
( <= ( + T5 460 ) Z)
( <= ( + T6 557 ) Z)
( >= T1 0 )
( >= T2 0 )
( >= T3 0 )
( >= T4 0 )
( >= T5 0 )
( >= T6 0 )
) )
(minimize Z)
(check-sat)